wcsp 100 3 501 512409557603043100
3 3 3 3 3 3 3 3 3 3 3 3 3 3 3 3 3 3 3 3 3 3 3 3 3 3 3 3 3 3 3 3 3 3 3 3 3 3 3 3 3 3 3 3 3 3 3 3 3 3 3 3 3 3 3 3 3 3 3 3 3 3 3 3 3 3 3 3 3 3 3 3 3 3 3 3 3 3 3 3 3 3 3 3 3 3 3 3 3 3 3 3 3 3 3 3 3 3 3 3
2 19 36 0 9
0 0 1
0 1 1
0 2 0
1 0 0
1 1 3
1 2 3
2 0 3
2 1 0
2 2 0
2 20 72 0 9
0 0 3
0 1 3
0 2 0
1 0 1
1 1 0
1 2 0
2 0 1
2 1 1
2 2 0
2 7 45 0 9
0 0 0
0 1 2
0 2 0
1 0 0
1 1 3
1 2 0
2 0 2
2 1 1
2 2 3
2 12 18 0 9
0 0 3
0 1 0
0 2 0
1 0 2
1 1 0
1 2 0
2 0 2
2 1 2
2 2 3
2 21 37 0 9
0 0 0
0 1 2
0 2 2
1 0 1
1 1 1
1 2 0
2 0 0
2 1 2
2 2 0
2 33 50 0 9
0 0 0
0 1 1
0 2 2
1 0 2
1 1 0
1 2 1
2 0 0
2 1 0
2 2 3
2 2 45 0 9
0 0 0
0 1 1
0 2 2
1 0 0
1 1 1
1 2 0
2 0 1
2 1 2
2 2 0
2 92 94 0 9
0 0 0
0 1 2
0 2 1
1 0 1
1 1 0
1 2 1
2 0 3
2 1 0
2 2 0
2 22 49 0 9
0 0 2
0 1 0
0 2 1
1 0 0
1 1 3
1 2 2
2 0 2
2 1 0
2 2 0
2 5 32 0 9
0 0 0
0 1 0
0 2 3
1 0 1
1 1 0
1 2 3
2 0 3
2 1 2
2 2 0
2 27 96 0 9
0 0 0
0 1 2
0 2 0
1 0 2
1 1 1
1 2 0
2 0 1
2 1 0
2 2 2
2 5 38 0 9
0 0 1
0 1 0
0 2 2
1 0 0
1 1 0
1 2 2
2 0 0
2 1 2
2 2 2
2 2 50 0 9
0 0 0
0 1 0
0 2 3
1 0 1
1 1 1
1 2 3
2 0 0
2 1 0
2 2 1
2 12 32 0 9
0 0 0
0 1 3
0 2 2
1 0 0
1 1 2
1 2 2
2 0 2
2 1 0
2 2 0
2 9 53 0 9
0 0 0
0 1 0
0 2 0
1 0 2
1 1 1
1 2 2
2 0 2
2 1 0
2 2 1
2 13 41 0 9
0 0 2
0 1 0
0 2 0
1 0 2
1 1 3
1 2 0
2 0 3
2 1 0
2 2 3
2 76 96 0 9
0 0 3
0 1 0
0 2 2
1 0 1
1 1 0
1 2 0
2 0 3
2 1 0
2 2 2
2 52 99 0 9
0 0 2
0 1 3
0 2 0
1 0 0
1 1 0
1 2 3
2 0 0
2 1 1
2 2 1
2 25 98 0 9
0 0 0
0 1 3
0 2 1
1 0 2
1 1 3
1 2 0
2 0 3
2 1 0
2 2 0
2 58 90 0 9
0 0 0
0 1 2
0 2 0
1 0 2
1 1 0
1 2 2
2 0 0
2 1 3
2 2 2
2 89 95 0 9
0 0 0
0 1 0
0 2 1
1 0 1
1 1 1
1 2 3
2 0 2
2 1 0
2 2 0
2 3 23 0 9
0 0 0
0 1 1
0 2 0
1 0 1
1 1 1
1 2 3
2 0 0
2 1 2
2 2 0
2 37 93 0 9
0 0 0
0 1 0
0 2 0
1 0 0
1 1 1
1 2 1
2 0 1
2 1 2
2 2 2
2 17 91 0 9
0 0 2
0 1 0
0 2 0
1 0 2
1 1 2
1 2 3
2 0 2
2 1 0
2 2 0
2 1 98 0 9
0 0 2
0 1 2
0 2 1
1 0 0
1 1 0
1 2 2
2 0 1
2 1 0
2 2 0
2 45 58 0 9
0 0 0
0 1 0
0 2 1
1 0 1
1 1 2
1 2 0
2 0 1
2 1 1
2 2 0
2 24 90 0 9
0 0 0
0 1 0
0 2 1
1 0 1
1 1 0
1 2 0
2 0 3
2 1 3
2 2 1
2 2 21 0 9
0 0 2
0 1 0
0 2 0
1 0 1
1 1 0
1 2 0
2 0 1
2 1 3
2 2 3
2 9 39 0 9
0 0 0
0 1 0
0 2 2
1 0 0
1 1 1
1 2 0
2 0 1
2 1 1
2 2 2
2 6 7 0 9
0 0 0
0 1 2
0 2 3
1 0 1
1 1 3
1 2 0
2 0 3
2 1 0
2 2 0
2 38 72 0 9
0 0 0
0 1 0
0 2 1
1 0 0
1 1 2
1 2 3
2 0 3
2 1 2
2 2 0
2 9 78 0 9
0 0 1
0 1 2
0 2 0
1 0 0
1 1 1
1 2 1
2 0 0
2 1 0
2 2 1
2 14 85 0 9
0 0 3
0 1 0
0 2 1
1 0 2
1 1 0
1 2 0
2 0 1
2 1 3
2 2 0
2 22 78 0 9
0 0 3
0 1 0
0 2 2
1 0 0
1 1 1
1 2 0
2 0 1
2 1 2
2 2 0
2 85 88 0 9
0 0 2
0 1 2
0 2 3
1 0 1
1 1 0
1 2 0
2 0 0
2 1 1
2 2 0
2 8 56 0 9
0 0 0
0 1 3
0 2 3
1 0 1
1 1 3
1 2 0
2 0 0
2 1 3
2 2 0
2 15 54 0 9
0 0 1
0 1 0
0 2 3
1 0 0
1 1 0
1 2 1
2 0 2
2 1 1
2 2 0
2 23 29 0 9
0 0 0
0 1 0
0 2 2
1 0 0
1 1 0
1 2 2
2 0 1
2 1 1
2 2 2
2 52 70 0 9
0 0 0
0 1 3
0 2 0
1 0 0
1 1 1
1 2 2
2 0 3
2 1 0
2 2 2
2 3 90 0 9
0 0 0
0 1 2
0 2 0
1 0 3
1 1 1
1 2 3
2 0 0
2 1 1
2 2 0
2 49 88 0 9
0 0 1
0 1 3
0 2 0
1 0 0
1 1 0
1 2 2
2 0 1
2 1 0
2 2 3
2 15 19 0 9
0 0 0
0 1 0
0 2 3
1 0 2
1 1 3
1 2 3
2 0 0
2 1 0
2 2 1
2 40 74 0 9
0 0 1
0 1 0
0 2 2
1 0 1
1 1 3
1 2 0
2 0 0
2 1 1
2 2 0
2 14 46 0 9
0 0 0
0 1 0
0 2 0
1 0 1
1 1 3
1 2 3
2 0 0
2 1 1
2 2 2
2 3 15 0 9
0 0 3
0 1 0
0 2 3
1 0 3
1 1 1
1 2 1
2 0 0
2 1 0
2 2 0
2 77 89 0 9
0 0 0
0 1 0
0 2 2
1 0 0
1 1 2
1 2 2
2 0 2
2 1 0
2 2 1
2 23 97 0 9
0 0 2
0 1 0
0 2 0
1 0 2
1 1 1
1 2 0
2 0 1
2 1 2
2 2 0
2 23 79 0 9
0 0 2
0 1 2
0 2 0
1 0 0
1 1 3
1 2 3
2 0 1
2 1 0
2 2 0
2 40 49 0 9
0 0 0
0 1 3
0 2 3
1 0 0
1 1 3
1 2 0
2 0 2
2 1 0
2 2 3
2 40 42 0 9
0 0 0
0 1 3
0 2 0
1 0 1
1 1 0
1 2 3
2 0 3
2 1 2
2 2 0
2 4 62 0 9
0 0 2
0 1 1
0 2 2
1 0 2
1 1 0
1 2 0
2 0 0
2 1 3
2 2 0
2 10 41 0 9
0 0 0
0 1 0
0 2 1
1 0 2
1 1 0
1 2 2
2 0 3
2 1 0
2 2 1
2 13 68 0 9
0 0 0
0 1 2
0 2 3
1 0 3
1 1 0
1 2 0
2 0 3
2 1 0
2 2 1
2 63 95 0 9
0 0 0
0 1 1
0 2 2
1 0 2
1 1 0
1 2 1
2 0 0
2 1 0
2 2 1
2 48 57 0 9
0 0 0
0 1 0
0 2 1
1 0 3
1 1 1
1 2 0
2 0 2
2 1 3
2 2 0
2 68 87 0 9
0 0 0
0 1 1
0 2 1
1 0 3
1 1 2
1 2 0
2 0 1
2 1 0
2 2 0
2 0 39 0 9
0 0 1
0 1 2
0 2 0
1 0 3
1 1 0
1 2 0
2 0 3
2 1 2
2 2 0
2 18 81 0 9
0 0 2
0 1 3
0 2 3
1 0 0
1 1 0
1 2 1
2 0 0
2 1 0
2 2 2
2 43 46 0 9
0 0 2
0 1 0
0 2 3
1 0 0
1 1 0
1 2 3
2 0 2
2 1 0
2 2 2
2 13 92 0 9
0 0 0
0 1 0
0 2 2
1 0 2
1 1 3
1 2 0
2 0 2
2 1 0
2 2 2
2 17 97 0 9
0 0 0
0 1 0
0 2 3
1 0 3
1 1 0
1 2 3
2 0 2
2 1 1
2 2 0
2 52 62 0 9
0 0 1
0 1 3
0 2 0
1 0 3
1 1 0
1 2 1
2 0 1
2 1 0
2 2 0
2 17 62 0 9
0 0 1
0 1 1
0 2 0
1 0 2
1 1 0
1 2 1
2 0 0
2 1 3
2 2 0
2 12 51 0 9
0 0 3
0 1 0
0 2 3
1 0 3
1 1 0
1 2 1
2 0 0
2 1 2
2 2 0
2 14 18 0 9
0 0 0
0 1 3
0 2 0
1 0 1
1 1 0
1 2 3
2 0 0
2 1 2
2 2 2
2 3 5 0 9
0 0 2
0 1 0
0 2 0
1 0 2
1 1 1
1 2 1
2 0 2
2 1 0
2 2 0
2 31 65 0 9
0 0 3
0 1 1
0 2 0
1 0 0
1 1 1
1 2 0
2 0 0
2 1 3
2 2 3
2 24 93 0 9
0 0 1
0 1 1
0 2 1
1 0 0
1 1 0
1 2 0
2 0 1
2 1 1
2 2 0
2 55 84 0 9
0 0 0
0 1 0
0 2 3
1 0 3
1 1 0
1 2 0
2 0 3
2 1 1
2 2 1
2 51 76 0 9
0 0 3
0 1 3
0 2 0
1 0 1
1 1 0
1 2 0
2 0 0
2 1 3
2 2 3
2 3 4 0 9
0 0 0
0 1 1
0 2 3
1 0 0
1 1 1
1 2 2
2 0 0
2 1 3
2 2 0
2 32 39 0 9
0 0 2
0 1 2
0 2 1
1 0 0
1 1 0
1 2 3
2 0 0
2 1 3
2 2 0
2 31 51 0 9
0 0 0
0 1 0
0 2 3
1 0 2
1 1 2
1 2 1
2 0 0
2 1 2
2 2 0
2 8 22 0 9
0 0 0
0 1 0
0 2 0
1 0 0
1 1 2
1 2 1
2 0 3
2 1 3
2 2 3
2 69 70 0 9
0 0 2
0 1 0
0 2 0
1 0 1
1 1 1
1 2 0
2 0 0
2 1 2
2 2 3
2 9 18 0 9
0 0 3
0 1 1
0 2 1
1 0 3
1 1 0
1 2 0
2 0 0
2 1 2
2 2 0
2 43 89 0 9
0 0 0
0 1 0
0 2 0
1 0 3
1 1 2
1 2 2
2 0 3
2 1 0
2 2 3
2 45 79 0 9
0 0 3
0 1 0
0 2 2
1 0 1
1 1 0
1 2 2
2 0 0
2 1 0
2 2 2
2 22 90 0 9
0 0 2
0 1 2
0 2 0
1 0 0
1 1 0
1 2 3
2 0 3
2 1 0
2 2 2
2 43 48 0 9
0 0 2
0 1 0
0 2 3
1 0 0
1 1 3
1 2 0
2 0 0
2 1 3
2 2 2
2 8 72 0 9
0 0 2
0 1 3
0 2 0
1 0 2
1 1 2
1 2 0
2 0 3
2 1 0
2 2 0
2 70 93 0 9
0 0 3
0 1 1
0 2 0
1 0 1
1 1 2
1 2 0
2 0 2
2 1 0
2 2 0
2 49 56 0 9
0 0 1
0 1 2
0 2 0
1 0 0
1 1 2
1 2 0
2 0 0
2 1 3
2 2 1
2 5 19 0 9
0 0 0
0 1 1
0 2 0
1 0 0
1 1 2
1 2 3
2 0 0
2 1 1
2 2 2
2 48 73 0 9
0 0 2
0 1 1
0 2 0
1 0 3
1 1 0
1 2 0
2 0 2
2 1 1
2 2 0
2 37 46 0 9
0 0 3
0 1 0
0 2 0
1 0 2
1 1 0
1 2 1
2 0 1
2 1 0
2 2 1
2 55 57 0 9
0 0 0
0 1 0
0 2 1
1 0 2
1 1 3
1 2 1
2 0 0
2 1 0
2 2 3
2 10 63 0 9
0 0 0
0 1 3
0 2 1
1 0 1
1 1 3
1 2 0
2 0 2
2 1 0
2 2 0
2 3 62 0 9
0 0 2
0 1 3
0 2 2
1 0 0
1 1 3
1 2 3
2 0 0
2 1 0
2 2 0
2 36 98 0 9
0 0 0
0 1 2
0 2 2
1 0 2
1 1 2
1 2 0
2 0 3
2 1 0
2 2 0
2 32 74 0 9
0 0 1
0 1 0
0 2 0
1 0 3
1 1 2
1 2 2
2 0 0
2 1 0
2 2 1
2 19 52 0 9
0 0 0
0 1 0
0 2 3
1 0 0
1 1 1
1 2 0
2 0 1
2 1 1
2 2 2
2 19 72 0 9
0 0 0
0 1 0
0 2 3
1 0 3
1 1 3
1 2 2
2 0 0
2 1 2
2 2 0
2 23 52 0 9
0 0 1
0 1 3
0 2 3
1 0 3
1 1 0
1 2 0
2 0 0
2 1 2
2 2 0
2 54 73 0 9
0 0 0
0 1 0
0 2 3
1 0 1
1 1 3
1 2 0
2 0 3
2 1 3
2 2 0
2 75 79 0 9
0 0 0
0 1 1
0 2 3
1 0 0
1 1 3
1 2 0
2 0 0
2 1 2
2 2 1
2 96 98 0 9
0 0 0
0 1 3
0 2 1
1 0 3
1 1 0
1 2 0
2 0 3
2 1 3
2 2 0
2 5 77 0 9
0 0 1
0 1 1
0 2 0
1 0 3
1 1 0
1 2 1
2 0 0
2 1 1
2 2 0
2 3 9 0 9
0 0 0
0 1 2
0 2 2
1 0 2
1 1 0
1 2 0
2 0 3
2 1 2
2 2 0
2 60 69 0 9
0 0 2
0 1 0
0 2 3
1 0 1
1 1 0
1 2 0
2 0 1
2 1 0
2 2 2
2 65 99 0 9
0 0 1
0 1 0
0 2 0
1 0 3
1 1 2
1 2 0
2 0 1
2 1 1
2 2 0
2 19 71 0 9
0 0 2
0 1 2
0 2 2
1 0 0
1 1 0
1 2 1
2 0 3
2 1 0
2 2 0
2 25 38 0 9
0 0 3
0 1 2
0 2 0
1 0 0
1 1 1
1 2 0
2 0 1
2 1 2
2 2 0
2 7 37 0 9
0 0 1
0 1 0
0 2 0
1 0 3
1 1 0
1 2 1
2 0 3
2 1 1
2 2 0
2 42 82 0 9
0 0 0
0 1 0
0 2 0
1 0 2
1 1 0
1 2 1
2 0 1
2 1 3
2 2 2
2 34 68 0 9
0 0 3
0 1 0
0 2 2
1 0 0
1 1 2
1 2 3
2 0 0
2 1 0
2 2 3
2 8 40 0 9
0 0 3
0 1 2
0 2 0
1 0 0
1 1 0
1 2 3
2 0 0
2 1 2
2 2 1
2 0 49 0 9
0 0 2
0 1 2
0 2 0
1 0 1
1 1 0
1 2 3
2 0 1
2 1 0
2 2 0
2 19 47 0 9
0 0 1
0 1 1
0 2 3
1 0 0
1 1 0
1 2 1
2 0 0
2 1 0
2 2 3
2 62 88 0 9
0 0 0
0 1 2
0 2 0
1 0 1
1 1 0
1 2 2
2 0 1
2 1 3
2 2 0
2 4 13 0 9
0 0 0
0 1 2
0 2 2
1 0 0
1 1 2
1 2 1
2 0 0
2 1 0
2 2 1
2 3 72 0 9
0 0 3
0 1 3
0 2 1
1 0 0
1 1 2
1 2 0
2 0 0
2 1 2
2 2 0
2 30 90 0 9
0 0 0
0 1 1
0 2 2
1 0 0
1 1 0
1 2 0
2 0 3
2 1 3
2 2 3
2 13 27 0 9
0 0 0
0 1 2
0 2 2
1 0 0
1 1 2
1 2 1
2 0 0
2 1 2
2 2 0
2 17 64 0 9
0 0 2
0 1 3
0 2 2
1 0 0
1 1 1
1 2 0
2 0 0
2 1 0
2 2 1
2 95 97 0 9
0 0 2
0 1 2
0 2 3
1 0 0
1 1 0
1 2 0
2 0 0
2 1 2
2 2 3
2 15 25 0 9
0 0 2
0 1 0
0 2 2
1 0 2
1 1 0
1 2 0
2 0 0
2 1 1
2 2 2
2 65 70 0 9
0 0 1
0 1 0
0 2 1
1 0 1
1 1 0
1 2 0
2 0 0
2 1 1
2 2 2
2 45 83 0 9
0 0 1
0 1 0
0 2 1
1 0 0
1 1 0
1 2 0
2 0 3
2 1 3
2 2 3
2 2 52 0 9
0 0 0
0 1 3
0 2 0
1 0 2
1 1 2
1 2 2
2 0 2
2 1 0
2 2 0
2 41 98 0 9
0 0 1
0 1 1
0 2 1
1 0 3
1 1 0
1 2 1
2 0 0
2 1 0
2 2 0
2 5 35 0 9
0 0 2
0 1 3
0 2 0
1 0 2
1 1 3
1 2 3
2 0 0
2 1 0
2 2 0
2 45 49 0 9
0 0 0
0 1 1
0 2 1
1 0 3
1 1 0
1 2 0
2 0 2
2 1 0
2 2 2
2 14 50 0 9
0 0 0
0 1 0
0 2 2
1 0 1
1 1 1
1 2 0
2 0 2
2 1 0
2 2 3
2 52 84 0 9
0 0 0
0 1 2
0 2 3
1 0 0
1 1 0
1 2 1
2 0 3
2 1 0
2 2 1
2 44 47 0 9
0 0 0
0 1 0
0 2 3
1 0 0
1 1 0
1 2 3
2 0 2
2 1 1
2 2 1
2 45 65 0 9
0 0 2
0 1 0
0 2 1
1 0 1
1 1 0
1 2 0
2 0 0
2 1 1
2 2 3
2 5 70 0 9
0 0 0
0 1 1
0 2 0
1 0 0
1 1 3
1 2 2
2 0 0
2 1 1
2 2 2
2 14 96 0 9
0 0 2
0 1 0
0 2 0
1 0 0
1 1 0
1 2 1
2 0 2
2 1 3
2 2 2
2 5 42 0 9
0 0 3
0 1 2
0 2 1
1 0 0
1 1 3
1 2 3
2 0 0
2 1 0
2 2 0
2 30 82 0 9
0 0 3
0 1 3
0 2 0
1 0 0
1 1 2
1 2 1
2 0 1
2 1 0
2 2 0
2 21 31 0 9
0 0 0
0 1 3
0 2 1
1 0 0
1 1 0
1 2 2
2 0 2
2 1 2
2 2 0
2 1 63 0 9
0 0 1
0 1 2
0 2 0
1 0 0
1 1 1
1 2 1
2 0 0
2 1 0
2 2 2
2 9 15 0 9
0 0 2
0 1 0
0 2 0
1 0 3
1 1 0
1 2 1
2 0 2
2 1 1
2 2 0
2 18 60 0 9
0 0 1
0 1 3
0 2 3
1 0 2
1 1 0
1 2 0
2 0 2
2 1 0
2 2 0
2 24 72 0 9
0 0 1
0 1 1
0 2 0
1 0 0
1 1 0
1 2 0
2 0 2
2 1 3
2 2 3
2 56 90 0 9
0 0 0
0 1 0
0 2 3
1 0 2
1 1 2
1 2 0
2 0 3
2 1 0
2 2 2
2 36 66 0 9
0 0 3
0 1 0
0 2 1
1 0 2
1 1 1
1 2 0
2 0 0
2 1 3
2 2 0
2 4 53 0 9
0 0 3
0 1 2
0 2 0
1 0 3
1 1 0
1 2 0
2 0 1
2 1 2
2 2 0
2 55 95 0 9
0 0 3
0 1 0
0 2 3
1 0 0
1 1 3
1 2 2
2 0 0
2 1 1
2 2 0
2 54 68 0 9
0 0 3
0 1 0
0 2 0
1 0 2
1 1 0
1 2 1
2 0 2
2 1 0
2 2 1
2 50 96 0 9
0 0 1
0 1 0
0 2 1
1 0 0
1 1 0
1 2 0
2 0 2
2 1 3
2 2 2
2 29 78 0 9
0 0 2
0 1 0
0 2 2
1 0 0
1 1 3
1 2 2
2 0 3
2 1 0
2 2 0
2 22 83 0 9
0 0 0
0 1 0
0 2 3
1 0 0
1 1 3
1 2 1
2 0 0
2 1 3
2 2 2
2 72 96 0 9
0 0 1
0 1 0
0 2 1
1 0 2
1 1 2
1 2 0
2 0 0
2 1 1
2 2 0
2 21 96 0 9
0 0 0
0 1 2
0 2 0
1 0 1
1 1 2
1 2 0
2 0 0
2 1 3
2 2 3
2 55 76 0 9
0 0 0
0 1 3
0 2 2
1 0 0
1 1 0
1 2 3
2 0 3
2 1 1
2 2 0
2 60 90 0 9
0 0 0
0 1 0
0 2 2
1 0 1
1 1 3
1 2 0
2 0 0
2 1 1
2 2 3
2 44 82 0 9
0 0 3
0 1 0
0 2 3
1 0 0
1 1 2
1 2 1
2 0 0
2 1 1
2 2 0
2 53 85 0 9
0 0 3
0 1 0
0 2 1
1 0 0
1 1 0
1 2 3
2 0 1
2 1 2
2 2 0
2 17 48 0 9
0 0 2
0 1 1
0 2 1
1 0 3
1 1 0
1 2 0
2 0 1
2 1 0
2 2 0
2 33 61 0 9
0 0 0
0 1 0
0 2 2
1 0 0
1 1 3
1 2 3
2 0 3
2 1 1
2 2 0
2 61 62 0 9
0 0 1
0 1 0
0 2 1
1 0 0
1 1 2
1 2 2
2 0 0
2 1 0
2 2 2
2 48 63 0 9
0 0 0
0 1 0
0 2 2
1 0 2
1 1 0
1 2 3
2 0 0
2 1 3
2 2 1
2 32 54 0 9
0 0 3
0 1 1
0 2 0
1 0 0
1 1 0
1 2 2
2 0 2
2 1 2
2 2 0
2 5 33 0 9
0 0 3
0 1 0
0 2 3
1 0 1
1 1 0
1 2 2
2 0 0
2 1 1
2 2 0
2 18 94 0 9
0 0 3
0 1 0
0 2 3
1 0 0
1 1 3
1 2 3
2 0 0
2 1 2
2 2 0
2 91 95 0 9
0 0 2
0 1 1
0 2 2
1 0 0
1 1 0
1 2 0
2 0 2
2 1 2
2 2 0
2 41 60 0 9
0 0 1
0 1 3
0 2 0
1 0 0
1 1 1
1 2 3
2 0 0
2 1 0
2 2 3
2 53 83 0 9
0 0 0
0 1 0
0 2 3
1 0 0
1 1 2
1 2 0
2 0 3
2 1 2
2 2 1
2 15 77 0 9
0 0 2
0 1 2
0 2 3
1 0 2
1 1 0
1 2 0
2 0 0
2 1 3
2 2 0
2 84 98 0 9
0 0 1
0 1 0
0 2 1
1 0 0
1 1 1
1 2 1
2 0 0
2 1 3
2 2 0
2 17 31 0 9
0 0 3
0 1 0
0 2 0
1 0 1
1 1 1
1 2 0
2 0 3
2 1 0
2 2 3
2 44 88 0 9
0 0 0
0 1 0
0 2 3
1 0 1
1 1 3
1 2 3
2 0 0
2 1 0
2 2 3
2 33 51 0 9
0 0 0
0 1 0
0 2 0
1 0 0
1 1 1
1 2 3
2 0 2
2 1 1
2 2 1
2 7 38 0 9
0 0 3
0 1 0
0 2 0
1 0 3
1 1 0
1 2 2
2 0 0
2 1 3
2 2 2
2 11 56 0 9
0 0 2
0 1 0
0 2 0
1 0 2
1 1 0
1 2 1
2 0 0
2 1 2
2 2 1
2 53 96 0 9
0 0 3
0 1 0
0 2 1
1 0 0
1 1 2
1 2 3
2 0 0
2 1 1
2 2 0
2 39 62 0 9
0 0 0
0 1 0
0 2 1
1 0 1
1 1 0
1 2 2
2 0 0
2 1 2
2 2 3
2 40 48 0 9
0 0 0
0 1 1
0 2 3
1 0 0
1 1 2
1 2 0
2 0 1
2 1 0
2 2 2
2 6 86 0 9
0 0 0
0 1 2
0 2 0
1 0 0
1 1 3
1 2 0
2 0 2
2 1 2
2 2 3
2 5 34 0 9
0 0 0
0 1 3
0 2 2
1 0 1
1 1 3
1 2 0
2 0 0
2 1 1
2 2 0
2 51 90 0 9
0 0 0
0 1 0
0 2 1
1 0 1
1 1 0
1 2 0
2 0 1
2 1 1
2 2 2
2 49 89 0 9
0 0 1
0 1 0
0 2 3
1 0 0
1 1 1
1 2 1
2 0 0
2 1 3
2 2 0
2 54 82 0 9
0 0 2
0 1 0
0 2 3
1 0 2
1 1 0
1 2 3
2 0 1
2 1 0
2 2 0
2 52 78 0 9
0 0 0
0 1 0
0 2 1
1 0 1
1 1 0
1 2 3
2 0 1
2 1 3
2 2 0
2 51 62 0 9
0 0 1
0 1 2
0 2 0
1 0 1
1 1 2
1 2 0
2 0 0
2 1 0
2 2 2
2 16 47 0 9
0 0 0
0 1 3
0 2 0
1 0 0
1 1 3
1 2 2
2 0 3
2 1 1
2 2 0
2 17 45 0 9
0 0 2
0 1 1
0 2 1
1 0 1
1 1 3
1 2 0
2 0 0
2 1 0
2 2 0
2 23 72 0 9
0 0 3
0 1 0
0 2 2
1 0 2
1 1 2
1 2 0
2 0 0
2 1 2
2 2 0
2 51 98 0 9
0 0 3
0 1 0
0 2 2
1 0 1
1 1 0
1 2 0
2 0 0
2 1 2
2 2 1
2 67 71 0 9
0 0 0
0 1 1
0 2 2
1 0 0
1 1 0
1 2 1
2 0 3
2 1 3
2 2 0
2 13 76 0 9
0 0 2
0 1 3
0 2 1
1 0 2
1 1 2
1 2 0
2 0 0
2 1 0
2 2 0
2 2 78 0 9
0 0 0
0 1 2
0 2 0
1 0 1
1 1 3
1 2 1
2 0 1
2 1 0
2 2 0
2 72 74 0 9
0 0 0
0 1 0
0 2 2
1 0 3
1 1 0
1 2 2
2 0 1
2 1 2
2 2 0
2 24 29 0 9
0 0 0
0 1 1
0 2 1
1 0 1
1 1 0
1 2 2
2 0 0
2 1 0
2 2 3
2 72 78 0 9
0 0 2
0 1 0
0 2 0
1 0 3
1 1 2
1 2 0
2 0 0
2 1 3
2 2 2
2 48 64 0 9
0 0 0
0 1 1
0 2 0
1 0 3
1 1 2
1 2 0
2 0 3
2 1 3
2 2 0
2 10 30 0 9
0 0 0
0 1 0
0 2 0
1 0 3
1 1 2
1 2 1
2 0 0
2 1 3
2 2 3
2 35 89 0 9
0 0 0
0 1 2
0 2 1
1 0 3
1 1 3
1 2 0
2 0 2
2 1 0
2 2 0
2 21 63 0 9
0 0 0
0 1 0
0 2 0
1 0 2
1 1 2
1 2 0
2 0 1
2 1 3
2 2 1
2 5 75 0 9
0 0 3
0 1 1
0 2 0
1 0 2
1 1 2
1 2 0
2 0 0
2 1 1
2 2 0
2 30 76 0 9
0 0 1
0 1 0
0 2 1
1 0 0
1 1 1
1 2 0
2 0 2
2 1 2
2 2 0
2 79 84 0 9
0 0 2
0 1 3
0 2 2
1 0 0
1 1 0
1 2 0
2 0 1
2 1 0
2 2 3
2 6 62 0 9
0 0 0
0 1 2
0 2 0
1 0 0
1 1 3
1 2 0
2 0 3
2 1 1
2 2 2
2 55 75 0 9
0 0 0
0 1 0
0 2 0
1 0 3
1 1 2
1 2 3
2 0 0
2 1 2
2 2 2
2 34 65 0 9
0 0 0
0 1 0
0 2 3
1 0 0
1 1 3
1 2 1
2 0 3
2 1 2
2 2 0
2 17 90 0 9
0 0 0
0 1 0
0 2 1
1 0 3
1 1 0
1 2 1
2 0 0
2 1 1
2 2 2
2 43 71 0 9
0 0 3
0 1 2
0 2 0
1 0 0
1 1 1
1 2 0
2 0 0
2 1 3
2 2 3
2 22 62 0 9
0 0 0
0 1 3
0 2 0
1 0 0
1 1 2
1 2 2
2 0 1
2 1 0
2 2 3
2 44 61 0 9
0 0 2
0 1 3
0 2 0
1 0 2
1 1 0
1 2 1
2 0 1
2 1 0
2 2 0
2 36 55 0 9
0 0 3
0 1 0
0 2 3
1 0 3
1 1 2
1 2 0
2 0 2
2 1 0
2 2 0
2 37 41 0 9
0 0 2
0 1 0
0 2 0
1 0 2
1 1 3
1 2 2
2 0 0
2 1 0
2 2 2
2 10 65 0 9
0 0 0
0 1 2
0 2 1
1 0 0
1 1 2
1 2 0
2 0 2
2 1 0
2 2 1
2 9 43 0 9
0 0 0
0 1 0
0 2 1
1 0 0
1 1 1
1 2 1
2 0 3
2 1 0
2 2 3
2 4 77 0 9
0 0 1
0 1 3
0 2 0
1 0 1
1 1 0
1 2 0
2 0 0
2 1 1
2 2 1
2 5 30 0 9
0 0 0
0 1 2
0 2 0
1 0 3
1 1 2
1 2 0
2 0 3
2 1 1
2 2 0
2 37 71 0 9
0 0 0
0 1 3
0 2 2
1 0 0
1 1 2
1 2 0
2 0 1
2 1 1
2 2 0
2 34 53 0 9
0 0 1
0 1 3
0 2 0
1 0 0
1 1 2
1 2 0
2 0 3
2 1 3
2 2 0
2 22 53 0 9
0 0 3
0 1 3
0 2 0
1 0 1
1 1 1
1 2 0
2 0 1
2 1 0
2 2 0
2 8 33 0 9
0 0 1
0 1 1
0 2 2
1 0 2
1 1 0
1 2 0
2 0 2
2 1 0
2 2 0
2 46 82 0 9
0 0 1
0 1 3
0 2 0
1 0 3
1 1 0
1 2 0
2 0 2
2 1 2
2 2 0
2 14 59 0 9
0 0 2
0 1 0
0 2 0
1 0 0
1 1 0
1 2 3
2 0 3
2 1 2
2 2 3
2 2 3 0 9
0 0 0
0 1 0
0 2 3
1 0 1
1 1 0
1 2 1
2 0 3
2 1 2
2 2 0
2 4 24 0 9
0 0 0
0 1 0
0 2 0
1 0 0
1 1 1
1 2 2
2 0 2
2 1 3
2 2 3
2 17 43 0 9
0 0 0
0 1 1
0 2 0
1 0 0
1 1 3
1 2 2
2 0 0
2 1 3
2 2 2
2 89 96 0 9
0 0 3
0 1 0
0 2 3
1 0 3
1 1 1
1 2 0
2 0 0
2 1 0
2 2 1
2 7 61 0 9
0 0 3
0 1 0
0 2 0
1 0 1
1 1 0
1 2 3
2 0 0
2 1 1
2 2 3
2 28 29 0 9
0 0 0
0 1 3
0 2 3
1 0 2
1 1 0
1 2 2
2 0 1
2 1 0
2 2 0
2 71 99 0 9
0 0 0
0 1 0
0 2 1
1 0 0
1 1 3
1 2 2
2 0 2
2 1 0
2 2 2
2 21 49 0 9
0 0 0
0 1 2
0 2 0
1 0 3
1 1 1
1 2 2
2 0 3
2 1 0
2 2 0
2 24 88 0 9
0 0 1
0 1 1
0 2 2
1 0 1
1 1 0
1 2 0
2 0 1
2 1 0
2 2 0
2 59 92 0 9
0 0 0
0 1 3
0 2 1
1 0 0
1 1 2
1 2 0
2 0 2
2 1 0
2 2 2
2 11 28 0 9
0 0 0
0 1 1
0 2 1
1 0 0
1 1 0
1 2 2
2 0 3
2 1 2
2 2 0
2 48 50 0 9
0 0 1
0 1 0
0 2 3
1 0 2
1 1 0
1 2 0
2 0 3
2 1 3
2 2 0
2 27 79 0 9
0 0 0
0 1 3
0 2 0
1 0 3
1 1 2
1 2 1
2 0 1
2 1 0
2 2 0
2 62 96 0 9
0 0 0
0 1 2
0 2 2
1 0 1
1 1 1
1 2 3
2 0 0
2 1 0
2 2 0
2 30 87 0 9
0 0 0
0 1 0
0 2 0
1 0 3
1 1 1
1 2 0
2 0 1
2 1 2
2 2 2
2 28 85 0 9
0 0 0
0 1 2
0 2 0
1 0 1
1 1 1
1 2 0
2 0 2
2 1 3
2 2 0
2 31 63 0 9
0 0 0
0 1 3
0 2 0
1 0 0
1 1 3
1 2 0
2 0 1
2 1 3
2 2 1
2 2 71 0 9
0 0 2
0 1 0
0 2 0
1 0 2
1 1 2
1 2 2
2 0 0
2 1 3
2 2 0
2 10 11 0 9
0 0 0
0 1 1
0 2 2
1 0 3
1 1 3
1 2 1
2 0 0
2 1 0
2 2 0
2 71 88 0 9
0 0 3
0 1 0
0 2 0
1 0 2
1 1 0
1 2 0
2 0 2
2 1 1
2 2 3
2 51 52 0 9
0 0 1
0 1 1
0 2 0
1 0 1
1 1 0
1 2 0
2 0 2
2 1 2
2 2 0
2 26 83 0 9
0 0 2
0 1 0
0 2 2
1 0 0
1 1 3
1 2 3
2 0 0
2 1 0
2 2 3
2 3 68 0 9
0 0 0
0 1 0
0 2 2
1 0 3
1 1 2
1 2 0
2 0 3
2 1 0
2 2 1
2 12 34 0 9
0 0 1
0 1 0
0 2 2
1 0 0
1 1 0
1 2 2
2 0 1
2 1 0
2 2 2
2 74 92 0 9
0 0 2
0 1 2
0 2 2
1 0 2
1 1 0
1 2 1
2 0 0
2 1 0
2 2 0
2 71 77 0 9
0 0 0
0 1 1
0 2 0
1 0 2
1 1 1
1 2 3
2 0 0
2 1 1
2 2 0
2 7 55 0 9
0 0 3
0 1 0
0 2 1
1 0 1
1 1 0
1 2 3
2 0 3
2 1 0
2 2 0
2 7 18 0 9
0 0 1
0 1 2
0 2 0
1 0 1
1 1 0
1 2 3
2 0 1
2 1 0
2 2 0
2 52 63 0 9
0 0 2
0 1 0
0 2 0
1 0 0
1 1 3
1 2 2
2 0 3
2 1 2
2 2 0
2 2 14 0 9
0 0 1
0 1 0
0 2 1
1 0 0
1 1 3
1 2 1
2 0 1
2 1 0
2 2 0
2 37 72 0 9
0 0 0
0 1 0
0 2 2
1 0 3
1 1 3
1 2 0
2 0 3
2 1 2
2 2 0
2 35 50 0 9
0 0 2
0 1 0
0 2 0
1 0 3
1 1 3
1 2 0
2 0 3
2 1 0
2 2 3
2 42 79 0 9
0 0 0
0 1 3
0 2 3
1 0 0
1 1 0
1 2 0
2 0 2
2 1 2
2 2 3
2 30 80 0 9
0 0 0
0 1 0
0 2 2
1 0 2
1 1 1
1 2 3
2 0 1
2 1 0
2 2 0
2 19 87 0 9
0 0 2
0 1 2
0 2 0
1 0 3
1 1 0
1 2 3
2 0 0
2 1 0
2 2 1
2 55 94 0 9
0 0 0
0 1 2
0 2 0
1 0 0
1 1 3
1 2 2
2 0 3
2 1 2
2 2 0
2 4 76 0 9
0 0 3
0 1 1
0 2 2
1 0 0
1 1 1
1 2 1
2 0 0
2 1 0
2 2 0
2 88 91 0 9
0 0 2
0 1 2
0 2 0
1 0 1
1 1 0
1 2 2
2 0 0
2 1 2
2 2 0
2 6 95 0 9
0 0 2
0 1 2
0 2 0
1 0 0
1 1 1
1 2 1
2 0 0
2 1 2
2 2 0
2 48 99 0 9
0 0 2
0 1 2
0 2 0
1 0 1
1 1 0
1 2 0
2 0 3
2 1 3
2 2 0
2 51 96 0 9
0 0 3
0 1 3
0 2 0
1 0 2
1 1 0
1 2 3
2 0 2
2 1 0
2 2 0
2 6 99 0 9
0 0 0
0 1 2
0 2 0
1 0 1
1 1 0
1 2 3
2 0 0
2 1 3
2 2 1
2 18 97 0 9
0 0 3
0 1 0
0 2 3
1 0 3
1 1 0
1 2 0
2 0 2
2 1 1
2 2 0
2 55 86 0 9
0 0 2
0 1 0
0 2 0
1 0 1
1 1 0
1 2 2
2 0 2
2 1 0
2 2 3
2 46 53 0 9
0 0 2
0 1 2
0 2 0
1 0 0
1 1 2
1 2 0
2 0 3
2 1 0
2 2 2
2 18 52 0 9
0 0 0
0 1 1
0 2 2
1 0 0
1 1 3
1 2 1
2 0 0
2 1 1
2 2 0
2 21 62 0 9
0 0 1
0 1 0
0 2 0
1 0 2
1 1 0
1 2 2
2 0 0
2 1 3
2 2 2
2 43 47 0 9
0 0 0
0 1 0
0 2 1
1 0 0
1 1 1
1 2 1
2 0 3
2 1 0
2 2 1
2 77 96 0 9
0 0 0
0 1 0
0 2 0
1 0 2
1 1 0
1 2 1
2 0 1
2 1 1
2 2 1
2 12 61 0 9
0 0 0
0 1 0
0 2 3
1 0 2
1 1 1
1 2 0
2 0 0
2 1 2
2 2 2
2 22 70 0 9
0 0 0
0 1 2
0 2 1
1 0 0
1 1 3
1 2 1
2 0 3
2 1 0
2 2 0
2 14 57 0 9
0 0 0
0 1 0
0 2 1
1 0 0
1 1 0
1 2 3
2 0 2
2 1 1
2 2 3
2 16 58 0 9
0 0 3
0 1 0
0 2 0
1 0 1
1 1 0
1 2 2
2 0 0
2 1 1
2 2 3
2 5 43 0 9
0 0 2
0 1 2
0 2 1
1 0 0
1 1 3
1 2 0
2 0 0
2 1 0
2 2 2
2 3 73 0 9
0 0 2
0 1 2
0 2 1
1 0 0
1 1 1
1 2 0
2 0 2
2 1 0
2 2 0
2 18 36 0 9
0 0 3
0 1 0
0 2 0
1 0 0
1 1 2
1 2 3
2 0 0
2 1 2
2 2 2
2 17 88 0 9
0 0 0
0 1 0
0 2 2
1 0 0
1 1 3
1 2 0
2 0 3
2 1 2
2 2 3
2 16 39 0 9
0 0 3
0 1 0
0 2 0
1 0 0
1 1 1
1 2 1
2 0 1
2 1 0
2 2 3
2 25 70 0 9
0 0 0
0 1 0
0 2 3
1 0 2
1 1 0
1 2 0
2 0 2
2 1 2
2 2 1
2 34 67 0 9
0 0 1
0 1 1
0 2 0
1 0 0
1 1 0
1 2 0
2 0 1
2 1 2
2 2 3
2 20 97 0 9
0 0 2
0 1 3
0 2 0
1 0 0
1 1 3
1 2 1
2 0 1
2 1 0
2 2 0
2 21 38 0 9
0 0 2
0 1 3
0 2 2
1 0 0
1 1 0
1 2 2
2 0 3
2 1 0
2 2 0
2 27 91 0 9
0 0 3
0 1 2
0 2 2
1 0 0
1 1 0
1 2 0
2 0 3
2 1 0
2 2 3
2 24 76 0 9
0 0 0
0 1 1
0 2 2
1 0 2
1 1 0
1 2 1
2 0 0
2 1 2
2 2 0
2 41 92 0 9
0 0 2
0 1 0
0 2 0
1 0 0
1 1 0
1 2 3
2 0 1
2 1 3
2 2 3
2 43 97 0 9
0 0 0
0 1 0
0 2 1
1 0 1
1 1 0
1 2 1
2 0 3
2 1 3
2 2 0
2 87 98 0 9
0 0 0
0 1 1
0 2 0
1 0 0
1 1 2
1 2 2
2 0 0
2 1 2
2 2 3
2 27 28 0 9
0 0 2
0 1 2
0 2 3
1 0 0
1 1 0
1 2 0
2 0 3
2 1 0
2 2 3
2 46 90 0 9
0 0 3
0 1 2
0 2 1
1 0 1
1 1 0
1 2 0
2 0 3
2 1 0
2 2 0
2 8 65 0 9
0 0 0
0 1 2
0 2 1
1 0 3
1 1 0
1 2 3
2 0 0
2 1 1
2 2 0
2 25 90 0 9
0 0 3
0 1 2
0 2 2
1 0 3
1 1 0
1 2 0
2 0 0
2 1 3
2 2 0
2 66 70 0 9
0 0 3
0 1 1
0 2 0
1 0 1
1 1 1
1 2 0
2 0 2
2 1 0
2 2 0
2 11 57 0 9
0 0 3
0 1 0
0 2 0
1 0 0
1 1 2
1 2 3
2 0 1
2 1 2
2 2 0
2 10 29 0 9
0 0 1
0 1 1
0 2 0
1 0 1
1 1 0
1 2 0
2 0 0
2 1 1
2 2 2
2 26 79 0 9
0 0 0
0 1 3
0 2 3
1 0 3
1 1 0
1 2 0
2 0 1
2 1 1
2 2 0
2 16 30 0 9
0 0 2
0 1 2
0 2 0
1 0 1
1 1 2
1 2 0
2 0 0
2 1 0
2 2 1
2 20 88 0 9
0 0 0
0 1 3
0 2 0
1 0 2
1 1 0
1 2 0
2 0 2
2 1 1
2 2 2
2 43 75 0 9
0 0 3
0 1 0
0 2 0
1 0 1
1 1 0
1 2 1
2 0 3
2 1 0
2 2 1
2 23 92 0 9
0 0 0
0 1 0
0 2 1
1 0 3
1 1 1
1 2 0
2 0 2
2 1 0
2 2 1
2 31 47 0 9
0 0 0
0 1 1
0 2 3
1 0 0
1 1 0
1 2 2
2 0 2
2 1 1
2 2 0
2 47 76 0 9
0 0 0
0 1 3
0 2 0
1 0 2
1 1 0
1 2 3
2 0 0
2 1 2
2 2 1
2 72 77 0 9
0 0 3
0 1 0
0 2 1
1 0 0
1 1 1
1 2 1
2 0 3
2 1 0
2 2 0
2 69 82 0 9
0 0 1
0 1 1
0 2 0
1 0 0
1 1 1
1 2 1
2 0 2
2 1 0
2 2 0
2 9 91 0 9
0 0 0
0 1 2
0 2 0
1 0 0
1 1 2
1 2 2
2 0 0
2 1 1
2 2 2
2 10 22 0 9
0 0 3
0 1 0
0 2 1
1 0 2
1 1 0
1 2 2
2 0 3
2 1 0
2 2 0
2 15 40 0 9
0 0 0
0 1 3
0 2 3
1 0 0
1 1 0
1 2 0
2 0 3
2 1 2
2 2 3
2 6 89 0 9
0 0 0
0 1 2
0 2 0
1 0 2
1 1 1
1 2 1
2 0 3
2 1 0
2 2 0
2 39 97 0 9
0 0 2
0 1 1
0 2 0
1 0 2
1 1 0
1 2 0
2 0 1
2 1 3
2 2 0
2 5 21 0 9
0 0 2
0 1 0
0 2 3
1 0 1
1 1 3
1 2 2
2 0 0
2 1 0
2 2 0
2 30 42 0 9
0 0 0
0 1 0
0 2 0
1 0 3
1 1 2
1 2 3
2 0 0
2 1 1
2 2 1
2 10 58 0 9
0 0 3
0 1 0
0 2 1
1 0 0
1 1 2
1 2 3
2 0 2
2 1 0
2 2 0
2 21 74 0 9
0 0 0
0 1 1
0 2 0
1 0 1
1 1 2
1 2 2
2 0 3
2 1 0
2 2 0
2 0 17 0 9
0 0 2
0 1 0
0 2 0
1 0 1
1 1 0
1 2 2
2 0 0
2 1 1
2 2 2
2 46 73 0 9
0 0 3
0 1 0
0 2 2
1 0 2
1 1 0
1 2 2
2 0 0
2 1 3
2 2 0
2 50 58 0 9
0 0 0
0 1 1
0 2 0
1 0 1
1 1 2
1 2 0
2 0 3
2 1 1
2 2 0
2 11 95 0 9
0 0 3
0 1 1
0 2 0
1 0 1
1 1 0
1 2 2
2 0 0
2 1 1
2 2 0
2 30 70 0 9
0 0 0
0 1 2
0 2 2
1 0 0
1 1 0
1 2 3
2 0 0
2 1 3
2 2 2
2 25 96 0 9
0 0 2
0 1 0
0 2 0
1 0 3
1 1 3
1 2 2
2 0 1
2 1 0
2 2 0
2 9 13 0 9
0 0 2
0 1 0
0 2 3
1 0 1
1 1 3
1 2 0
2 0 0
2 1 0
2 2 3
2 16 89 0 9
0 0 0
0 1 2
0 2 3
1 0 0
1 1 0
1 2 3
2 0 2
2 1 1
2 2 0
2 29 90 0 9
0 0 0
0 1 2
0 2 3
1 0 0
1 1 0
1 2 3
2 0 1
2 1 0
2 2 3
2 22 36 0 9
0 0 1
0 1 2
0 2 0
1 0 0
1 1 0
1 2 0
2 0 2
2 1 1
2 2 1
2 40 67 0 9
0 0 1
0 1 0
0 2 0
1 0 3
1 1 3
1 2 0
2 0 0
2 1 2
2 2 1
2 47 48 0 9
0 0 0
0 1 2
0 2 0
1 0 3
1 1 3
1 2 2
2 0 3
2 1 0
2 2 0
2 40 95 0 9
0 0 3
0 1 0
0 2 1
1 0 3
1 1 3
1 2 2
2 0 0
2 1 0
2 2 0
2 10 39 0 9
0 0 2
0 1 0
0 2 3
1 0 1
1 1 2
1 2 0
2 0 0
2 1 0
2 2 3
2 37 51 0 9
0 0 2
0 1 0
0 2 0
1 0 1
1 1 3
1 2 2
2 0 0
2 1 3
2 2 0
2 33 70 0 9
0 0 0
0 1 2
0 2 3
1 0 0
1 1 0
1 2 3
2 0 0
2 1 2
2 2 2
2 43 61 0 9
0 0 0
0 1 1
0 2 0
1 0 2
1 1 2
1 2 2
2 0 3
2 1 0
2 2 0
2 45 80 0 9
0 0 0
0 1 3
0 2 3
1 0 1
1 1 0
1 2 0
2 0 3
2 1 0
2 2 3
2 7 69 0 9
0 0 3
0 1 3
0 2 0
1 0 0
1 1 0
1 2 3
2 0 1
2 1 0
2 2 1
2 32 96 0 9
0 0 0
0 1 2
0 2 3
1 0 0
1 1 3
1 2 0
2 0 2
2 1 3
2 2 0
2 10 23 0 9
0 0 0
0 1 0
0 2 1
1 0 2
1 1 2
1 2 1
2 0 0
2 1 0
2 2 2
2 10 72 0 9
0 0 0
0 1 0
0 2 2
1 0 1
1 1 1
1 2 0
2 0 2
2 1 0
2 2 1
2 37 82 0 9
0 0 0
0 1 1
0 2 3
1 0 2
1 1 0
1 2 0
2 0 0
2 1 3
2 2 3
2 61 65 0 9
0 0 0
0 1 1
0 2 3
1 0 0
1 1 0
1 2 1
2 0 3
2 1 0
2 2 3
2 22 84 0 9
0 0 0
0 1 0
0 2 0
1 0 2
1 1 2
1 2 2
2 0 0
2 1 2
2 2 2
2 11 51 0 9
0 0 0
0 1 3
0 2 1
1 0 0
1 1 2
1 2 1
2 0 3
2 1 0
2 2 0
2 24 53 0 9
0 0 0
0 1 0
0 2 2
1 0 1
1 1 0
1 2 0
2 0 2
2 1 2
2 2 3
2 20 22 0 9
0 0 2
0 1 0
0 2 1
1 0 0
1 1 3
1 2 0
2 0 2
2 1 0
2 2 1
2 37 59 0 9
0 0 3
0 1 3
0 2 0
1 0 0
1 1 1
1 2 2
2 0 0
2 1 0
2 2 3
2 46 83 0 9
0 0 1
0 1 0
0 2 0
1 0 0
1 1 0
1 2 1
2 0 3
2 1 2
2 2 1
2 10 49 0 9
0 0 3
0 1 0
0 2 3
1 0 3
1 1 0
1 2 3
2 0 2
2 1 0
2 2 0
2 11 35 0 9
0 0 0
0 1 1
0 2 1
1 0 3
1 1 3
1 2 0
2 0 0
2 1 0
2 2 3
2 0 59 0 9
0 0 1
0 1 2
0 2 0
1 0 3
1 1 3
1 2 0
2 0 3
2 1 0
2 2 0
2 26 51 0 9
0 0 0
0 1 1
0 2 3
1 0 0
1 1 3
1 2 0
2 0 0
2 1 1
2 2 3
2 16 19 0 9
0 0 1
0 1 0
0 2 0
1 0 1
1 1 0
1 2 2
2 0 2
2 1 0
2 2 2
2 10 96 0 9
0 0 1
0 1 2
0 2 1
1 0 1
1 1 0
1 2 0
2 0 3
2 1 0
2 2 0
2 10 70 0 9
0 0 2
0 1 0
0 2 1
1 0 0
1 1 0
1 2 3
2 0 0
2 1 1
2 2 1
2 72 82 0 9
0 0 0
0 1 1
0 2 1
1 0 0
1 1 2
1 2 0
2 0 3
2 1 0
2 2 3
2 24 38 0 9
0 0 0
0 1 1
0 2 0
1 0 2
1 1 0
1 2 1
2 0 0
2 1 3
2 2 1
2 41 46 0 9
0 0 1
0 1 0
0 2 0
1 0 3
1 1 1
1 2 2
2 0 2
2 1 0
2 2 0
2 10 99 0 9
0 0 1
0 1 0
0 2 0
1 0 0
1 1 1
1 2 0
2 0 2
2 1 1
2 2 1
2 43 63 0 9
0 0 3
0 1 0
0 2 0
1 0 1
1 1 1
1 2 0
2 0 0
2 1 3
2 2 2
2 10 84 0 9
0 0 1
0 1 0
0 2 2
1 0 0
1 1 0
1 2 0
2 0 3
2 1 2
2 2 3
2 32 72 0 9
0 0 1
0 1 1
0 2 0
1 0 2
1 1 0
1 2 0
2 0 0
2 1 1
2 2 3
2 66 72 0 9
0 0 2
0 1 0
0 2 0
1 0 3
1 1 2
1 2 3
2 0 2
2 1 0
2 2 0
2 38 63 0 9
0 0 0
0 1 0
0 2 2
1 0 3
1 1 3
1 2 3
2 0 0
2 1 2
2 2 0
2 2 41 0 9
0 0 1
0 1 0
0 2 0
1 0 3
1 1 0
1 2 0
2 0 1
2 1 2
2 2 2
2 23 89 0 9
0 0 2
0 1 2
0 2 0
1 0 0
1 1 3
1 2 1
2 0 2
2 1 0
2 2 0
2 81 99 0 9
0 0 0
0 1 0
0 2 3
1 0 0
1 1 2
1 2 1
2 0 0
2 1 2
2 2 1
2 22 73 0 9
0 0 0
0 1 3
0 2 2
1 0 0
1 1 0
1 2 2
2 0 0
2 1 1
2 2 2
2 9 68 0 9
0 0 2
0 1 2
0 2 0
1 0 1
1 1 0
1 2 3
2 0 0
2 1 3
2 2 0
2 0 79 0 9
0 0 2
0 1 1
0 2 0
1 0 3
1 1 0
1 2 0
2 0 0
2 1 1
2 2 2
2 3 39 0 9
0 0 3
0 1 0
0 2 2
1 0 2
1 1 1
1 2 0
2 0 0
2 1 0
2 2 2
2 48 85 0 9
0 0 1
0 1 0
0 2 1
1 0 0
1 1 1
1 2 0
2 0 3
2 1 1
2 2 0
2 77 84 0 9
0 0 0
0 1 2
0 2 0
1 0 2
1 1 0
1 2 1
2 0 0
2 1 2
2 2 2
2 31 74 0 9
0 0 3
0 1 0
0 2 3
1 0 2
1 1 0
1 2 1
2 0 1
2 1 0
2 2 0
2 29 37 0 9
0 0 2
0 1 1
0 2 0
1 0 1
1 1 1
1 2 2
2 0 0
2 1 0
2 2 0
2 63 77 0 9
0 0 0
0 1 2
0 2 0
1 0 0
1 1 2
1 2 2
2 0 0
2 1 2
2 2 2
2 71 90 0 9
0 0 1
0 1 2
0 2 0
1 0 0
1 1 0
1 2 0
2 0 1
2 1 1
2 2 3
2 12 53 0 9
0 0 0
0 1 0
0 2 3
1 0 2
1 1 2
1 2 2
2 0 0
2 1 3
2 2 0
2 8 37 0 9
0 0 0
0 1 2
0 2 0
1 0 2
1 1 0
1 2 3
2 0 2
2 1 0
2 2 1
2 51 91 0 9
0 0 0
0 1 2
0 2 0
1 0 0
1 1 1
1 2 2
2 0 1
2 1 0
2 2 2
2 8 14 0 9
0 0 0
0 1 3
0 2 2
1 0 3
1 1 0
1 2 0
2 0 2
2 1 0
2 2 2
2 45 60 0 9
0 0 0
0 1 0
0 2 0
1 0 1
1 1 3
1 2 0
2 0 3
2 1 3
2 2 2
2 38 95 0 9
0 0 3
0 1 2
0 2 0
1 0 2
1 1 2
1 2 0
2 0 0
2 1 0
2 2 3
2 4 55 0 9
0 0 0
0 1 2
0 2 0
1 0 0
1 1 3
1 2 3
2 0 3
2 1 0
2 2 2
2 18 53 0 9
0 0 2
0 1 1
0 2 0
1 0 3
1 1 0
1 2 0
2 0 1
2 1 2
2 2 0
2 12 91 0 9
0 0 0
0 1 2
0 2 2
1 0 2
1 1 1
1 2 0
2 0 0
2 1 0
2 2 2
2 90 98 0 9
0 0 0
0 1 1
0 2 0
1 0 1
1 1 0
1 2 1
2 0 3
2 1 3
2 2 0
2 69 80 0 9
0 0 3
0 1 1
0 2 0
1 0 0
1 1 0
1 2 0
2 0 3
2 1 1
2 2 2
2 32 75 0 9
0 0 0
0 1 0
0 2 1
1 0 2
1 1 0
1 2 2
2 0 1
2 1 0
2 2 3
2 81 82 0 9
0 0 1
0 1 1
0 2 0
1 0 1
1 1 0
1 2 0
2 0 1
2 1 2
2 2 0
2 38 98 0 9
0 0 3
0 1 2
0 2 0
1 0 0
1 1 3
1 2 0
2 0 0
2 1 2
2 2 1
2 47 99 0 9
0 0 0
0 1 2
0 2 2
1 0 0
1 1 1
1 2 0
2 0 0
2 1 2
2 2 2
2 39 94 0 9
0 0 0
0 1 0
0 2 1
1 0 0
1 1 1
1 2 1
2 0 3
2 1 1
2 2 0
2 30 63 0 9
0 0 0
0 1 0
0 2 2
1 0 2
1 1 3
1 2 0
2 0 3
2 1 2
2 2 0
2 39 74 0 9
0 0 3
0 1 0
0 2 3
1 0 0
1 1 0
1 2 2
2 0 1
2 1 0
2 2 3
2 27 32 0 9
0 0 3
0 1 3
0 2 0
1 0 0
1 1 1
1 2 0
2 0 3
2 1 2
2 2 0
2 38 67 0 9
0 0 0
0 1 0
0 2 2
1 0 1
1 1 0
1 2 3
2 0 1
2 1 2
2 2 0
2 42 51 0 9
0 0 1
0 1 2
0 2 2
1 0 3
1 1 0
1 2 0
2 0 3
2 1 0
2 2 0
2 71 78 0 9
0 0 1
0 1 2
0 2 0
1 0 1
1 1 0
1 2 0
2 0 0
2 1 1
2 2 2
2 2 19 0 9
0 0 2
0 1 0
0 2 3
1 0 0
1 1 1
1 2 3
2 0 3
2 1 0
2 2 0
2 46 93 0 9
0 0 1
0 1 0
0 2 1
1 0 3
1 1 0
1 2 0
2 0 2
2 1 2
2 2 0
2 13 84 0 9
0 0 0
0 1 3
0 2 0
1 0 2
1 1 3
1 2 2
2 0 2
2 1 0
2 2 0
2 36 68 0 9
0 0 1
0 1 3
0 2 0
1 0 0
1 1 1
1 2 1
2 0 0
2 1 3
2 2 0
2 8 60 0 9
0 0 2
0 1 2
0 2 0
1 0 3
1 1 0
1 2 0
2 0 1
2 1 3
2 2 0
2 33 65 0 9
0 0 3
0 1 0
0 2 0
1 0 3
1 1 0
1 2 1
2 0 2
2 1 2
2 2 0
2 12 58 0 9
0 0 2
0 1 3
0 2 0
1 0 1
1 1 0
1 2 0
2 0 2
2 1 2
2 2 0
2 57 58 0 9
0 0 0
0 1 0
0 2 3
1 0 1
1 1 0
1 2 2
2 0 3
2 1 0
2 2 1
2 78 95 0 9
0 0 0
0 1 0
0 2 3
1 0 0
1 1 0
1 2 3
2 0 2
2 1 1
2 2 3
2 95 98 0 9
0 0 0
0 1 1
0 2 2
1 0 2
1 1 1
1 2 0
2 0 0
2 1 0
2 2 1
2 24 62 0 9
0 0 3
0 1 1
0 2 0
1 0 0
1 1 0
1 2 3
2 0 0
2 1 1
2 2 2
2 53 97 0 9
0 0 3
0 1 3
0 2 2
1 0 2
1 1 0
1 2 0
2 0 0
2 1 0
2 2 2
2 21 75 0 9
0 0 2
0 1 1
0 2 1
1 0 0
1 1 1
1 2 1
2 0 0
2 1 0
2 2 0
2 29 75 0 9
0 0 3
0 1 1
0 2 0
1 0 1
1 1 0
1 2 0
2 0 0
2 1 2
2 2 3
1 0 512409557603043100 3
0 1
1 0
2 1
1 1 512409557603043100 3
0 0
1 1
2 0
1 2 512409557603043100 3
0 0
1 3
2 2
1 3 512409557603043100 3
0 3
1 1
2 0
1 4 512409557603043100 3
0 0
1 2
2 2
1 5 512409557603043100 3
0 0
1 1
2 1
1 6 512409557603043100 3
0 0
1 0
2 0
1 7 512409557603043100 3
0 0
1 1
2 0
1 8 512409557603043100 3
0 3
1 0
2 2
1 9 512409557603043100 3
0 0
1 1
2 1
1 10 512409557603043100 3
0 2
1 1
2 0
1 11 512409557603043100 3
0 1
1 0
2 1
1 12 512409557603043100 3
0 0
1 0
2 1
1 13 512409557603043100 3
0 1
1 1
2 0
1 14 512409557603043100 3
0 0
1 1
2 1
1 15 512409557603043100 3
0 2
1 3
2 0
1 16 512409557603043100 3
0 3
1 2
2 0
1 17 512409557603043100 3
0 1
1 0
2 0
1 18 512409557603043100 3
0 0
1 0
2 0
1 19 512409557603043100 3
0 2
1 0
2 2
1 20 512409557603043100 3
0 0
1 0
2 2
1 21 512409557603043100 3
0 3
1 0
2 2
1 22 512409557603043100 3
0 2
1 0
2 3
1 23 512409557603043100 3
0 1
1 0
2 2
1 24 512409557603043100 3
0 0
1 2
2 3
1 25 512409557603043100 3
0 1
1 0
2 2
1 26 512409557603043100 3
0 2
1 2
2 0
1 27 512409557603043100 3
0 0
1 0
2 0
1 28 512409557603043100 3
0 1
1 0
2 3
1 29 512409557603043100 3
0 2
1 2
2 0
1 30 512409557603043100 3
0 1
1 0
2 2
1 31 512409557603043100 3
0 3
1 0
2 2
1 32 512409557603043100 3
0 1
1 0
2 1
1 33 512409557603043100 3
0 0
1 0
2 1
1 34 512409557603043100 3
0 2
1 0
2 2
1 35 512409557603043100 3
0 0
1 3
2 0
1 36 512409557603043100 3
0 1
1 0
2 1
1 37 512409557603043100 3
0 3
1 0
2 1
1 38 512409557603043100 3
0 0
1 3
2 0
1 39 512409557603043100 3
0 0
1 1
2 2
1 40 512409557603043100 3
0 0
1 0
2 0
1 41 512409557603043100 3
0 2
1 2
2 0
1 42 512409557603043100 3
0 2
1 0
2 3
1 43 512409557603043100 3
0 0
1 1
2 3
1 44 512409557603043100 3
0 1
1 0
2 1
1 45 512409557603043100 3
0 2
1 2
2 0
1 46 512409557603043100 3
0 3
1 2
2 0
1 47 512409557603043100 3
0 2
1 0
2 0
1 48 512409557603043100 3
0 0
1 2
2 2
1 49 512409557603043100 3
0 0
1 3
2 0
1 50 512409557603043100 3
0 2
1 1
2 0
1 51 512409557603043100 3
0 0
1 2
2 1
1 52 512409557603043100 3
0 1
1 0
2 0
1 53 512409557603043100 3
0 1
1 0
2 3
1 54 512409557603043100 3
0 0
1 2
2 2
1 55 512409557603043100 3
0 0
1 2
2 2
1 56 512409557603043100 3
0 1
1 0
2 3
1 57 512409557603043100 3
0 0
1 3
2 0
1 58 512409557603043100 3
0 0
1 1
2 1
1 59 512409557603043100 3
0 0
1 2
2 2
1 60 512409557603043100 3
0 0
1 1
2 0
1 61 512409557603043100 3
0 1
1 0
2 3
1 62 512409557603043100 3
0 1
1 1
2 0
1 63 512409557603043100 3
0 0
1 0
2 0
1 64 512409557603043100 3
0 2
1 1
2 0
1 65 512409557603043100 3
0 0
1 0
2 2
1 66 512409557603043100 3
0 2
1 0
2 1
1 67 512409557603043100 3
0 2
1 0
2 2
1 68 512409557603043100 3
0 0
1 2
2 0
1 69 512409557603043100 3
0 0
1 0
2 2
1 70 512409557603043100 3
0 3
1 0
2 3
1 71 512409557603043100 3
0 1
1 1
2 0
1 72 512409557603043100 3
0 0
1 0
2 0
1 73 512409557603043100 3
0 3
1 3
2 0
1 74 512409557603043100 3
0 0
1 2
2 1
1 75 512409557603043100 3
0 0
1 2
2 0
1 76 512409557603043100 3
0 0
1 0
2 0
1 77 512409557603043100 3
0 1
1 0
2 1
1 78 512409557603043100 3
0 1
1 0
2 2
1 79 512409557603043100 3
0 0
1 0
2 0
1 80 512409557603043100 3
0 0
1 2
2 1
1 81 512409557603043100 3
0 0
1 0
2 0
1 82 512409557603043100 3
0 0
1 0
2 1
1 83 512409557603043100 3
0 0
1 0
2 0
1 84 512409557603043100 3
0 0
1 2
2 2
1 85 512409557603043100 3
0 0
1 0
2 1
1 86 512409557603043100 3
0 3
1 1
2 0
1 87 512409557603043100 3
0 0
1 2
2 2
1 88 512409557603043100 3
0 0
1 1
2 3
1 89 512409557603043100 3
0 1
1 0
2 1
1 90 512409557603043100 3
0 1
1 0
2 2
1 91 512409557603043100 3
0 0
1 0
2 0
1 92 512409557603043100 3
0 1
1 1
2 0
1 93 512409557603043100 3
0 0
1 2
2 2
1 94 512409557603043100 3
0 0
1 0
2 1
1 95 512409557603043100 3
0 2
1 2
2 0
1 96 512409557603043100 3
0 1
1 0
2 3
1 97 512409557603043100 3
0 0
1 2
2 2
1 98 512409557603043100 3
0 3
1 2
2 0
1 99 512409557603043100 3
0 0
1 0
2 1
0 60 0
